c Reading file examples/loan_acquisition/mmc_encoding/encoding.dimacs
c Building 1-fold quantitative self-composition...
c ind 102  103  108  109  110  111  112  113  117  118 0
c previous ind: 448  449  452  453  456  457  460  461  464  467  470  471  474  475  478  479  482  483  486  489  490  493  494  497  498  501  502  503  506  507  510  511  514  515  518  519  521  522  523 0
c This is a CNF SAT formula in the DIMACS CNF format,
c produced with the bc2cnf translator by Tommi Junttila;
c see http://users.ics.aalto.fi/tjunttil/circuits/index.html
c phi_Gamma_det <-> 1
c phi_Gamma <-> 1
c phi_T_transitions <-> 1
c phi_T <-> 1
c phi_sim_leaves <-> 1
c phi_sim_transition <-> 1
c phi_sim <-> 1
c FORMULA <-> 1
c pi_0 <-> 2
c phi_T_transitions_consistency <-> 85
c tau_0_3_approved_1 <-> 102
c tau_0_3_approved_0 <-> 103
c tau_0_2_approved_1 <-> 108
c tau_0_2_approved_0 <-> 109
c tau_0_1_approved_1 <-> 110
c tau_0_1_approved_0 <-> 111
c tau_0_0_approved_1 <-> 112
c tau_0_0_approved_0 <-> 113
c phi_T_feature_det <-> 114
c lam_0_monthly_income <-> 117
c lam_0_age <-> 118
c phi_Gamma_val <-> 446
c monthly_income_P280100 <-> 448
c age_P4300 <-> 449
c monthly_income_P209700 <-> 452
c age_P3400 <-> 453
c monthly_income_P161600 <-> 456
c age_P6200 <-> 457
c monthly_income_P655000 <-> 460
c age_P5700 <-> 461
c monthly_income_P540000 <-> 464
c monthly_income_P828100 <-> 467
c monthly_income_P476100 <-> 470
c age_P7800 <-> 471
c monthly_income_P302200 <-> 474
c age_P2900 <-> 475
c monthly_income_P155600 <-> 478
c age_P6800 <-> 479
c monthly_income_P949100 <-> 482
c age_P3000 <-> 483
c monthly_income_P314400 <-> 486
c monthly_income_P298000 <-> 489
c age_P5200 <-> 490
c monthly_income_P263000 <-> 493
c age_P6500 <-> 494
c monthly_income_P633900 <-> 497
c age_P6700 <-> 498
c pi_approved_0 <-> 501
c approved_P0 <-> 501
c monthly_income_P868400 <-> 502
c age_P3200 <-> 503
c monthly_income_P887100 <-> 506
c age_P6400 <-> 507
c monthly_income_P290500 <-> 510
c age_P7400 <-> 511
c monthly_income_P154000 <-> 514
c age_P6900 <-> 515
c monthly_income_P870800 <-> 518
c age_P7300 <-> 519
c pi_approved_1 <-> 521
c approved_P100 <-> 521
c monthly_income_P363700 <-> 522
c age_P4600 <-> 523
c ind 448 449 452 453 456 457 460 461 464 467 470 471 474 475 478 479 482 483 486 489 490 493 494 497 498 501 502 503 506 507 510 511 514 515 518 519 521 522 523 0
p cnf 525 1462
1 0
2 -3 0
2 -11 0
-2 11 3 0
2 0
-3 4 0
-3 66 0
3 -66 -4 0
-4 5 0
-4 117 0
4 -117 -5 0
5 -6 0
5 -60 0
-5 60 6 0
6 -7 0
6 -37 0
-6 37 7 0
7 -8 0
7 -75 0
-7 75 8 0
8 -9 0
8 -45 0
-8 45 9 0
9 -10 0
9 -77 0
-9 77 10 0
10 -47 0
10 -52 0
-10 52 47 0
11 -12 0
11 -26 0
-11 26 12 0
-12 13 0
-12 80 0
12 -80 -13 0
-13 14 0
-13 117 0
13 -117 -14 0
14 -15 0
14 -71 0
-14 71 15 0
15 -16 0
15 -73 0
-15 73 16 0
16 -17 0
16 -33 0
-16 33 17 0
17 -18 0
17 -35 0
-17 35 18 0
18 -19 0
18 -39 0
-18 39 19 0
19 -20 0
19 -84 0
-19 84 20 0
20 -21 0
20 -41 0
-20 41 21 0
21 -22 0
21 -62 0
-21 62 22 0
22 -23 0
22 -63 0
-22 63 23 0
23 -24 0
23 -43 0
-23 43 24 0
24 -25 0
24 -49 0
-24 49 25 0
25 -51 0
25 -78 0
-25 78 51 0
26 -27 0
26 -53 0
-26 53 27 0
-27 28 0
-27 31 0
27 -31 -28 0
-28 29 0
-28 30 0
28 -30 -29 0
29 102 0
29 -521 0
-29 521 -102 0
30 103 0
30 -501 0
-30 501 -103 0
-31 32 0
-31 118 0
31 -118 -32 0
32 -33 0
32 -34 0
-32 34 33 0
-33 456 0
-33 457 0
33 -457 -456 0
34 -35 0
34 -36 0
-34 36 35 0
-35 464 0
-35 494 0
35 -494 -464 0
36 -37 0
36 -38 0
-36 38 37 0
-37 467 0
-37 471 0
37 -471 -467 0
38 -39 0
38 -40 0
-38 40 39 0
-39 470 0
-39 471 0
39 -471 -470 0
40 -41 0
40 -42 0
-40 42 41 0
-41 478 0
-41 479 0
41 -479 -478 0
42 -43 0
42 -44 0
-42 44 43 0
-43 493 0
-43 494 0
43 -494 -493 0
44 -45 0
44 -46 0
-44 46 45 0
-45 497 0
-45 498 0
45 -498 -497 0
46 -47 0
46 -48 0
-46 48 47 0
-47 506 0
-47 507 0
47 -507 -506 0
48 -49 0
48 -50 0
-48 50 49 0
-49 510 0
-49 511 0
49 -511 -510 0
50 -51 0
50 -52 0
-50 52 51 0
-51 514 0
-51 515 0
51 -515 -514 0
-52 518 0
-52 519 0
52 -519 -518 0
53 -54 0
53 -64 0
-53 64 54 0
-54 55 0
-54 58 0
54 -58 -55 0
-55 56 0
-55 57 0
55 -57 -56 0
56 108 0
56 -521 0
-56 521 -108 0
57 109 0
57 -501 0
-57 501 -109 0
-58 59 0
-58 118 0
58 -118 -59 0
59 -60 0
59 -61 0
-59 61 60 0
-60 460 0
-60 461 0
60 -461 -460 0
61 -62 0
61 -63 0
-61 63 62 0
-62 486 0
-62 490 0
62 -490 -486 0
-63 489 0
-63 490 0
63 -490 -489 0
64 -65 0
64 -79 0
-64 79 65 0
-65 66 0
-65 69 0
65 -69 -66 0
-66 67 0
-66 68 0
66 -68 -67 0
67 110 0
67 -521 0
-67 521 -110 0
68 111 0
68 -501 0
-68 501 -111 0
-69 70 0
-69 118 0
69 -118 -70 0
70 -71 0
70 -72 0
-70 72 71 0
-71 448 0
-71 449 0
71 -449 -448 0
72 -73 0
72 -74 0
-72 74 73 0
-73 452 0
-73 453 0
73 -453 -452 0
74 -75 0
74 -76 0
-74 76 75 0
-75 482 0
-75 483 0
75 -483 -482 0
76 -77 0
76 -78 0
-76 78 77 0
-77 502 0
-77 503 0
77 -503 -502 0
-78 522 0
-78 523 0
78 -523 -522 0
-79 80 0
-79 83 0
79 -83 -80 0
-80 81 0
-80 82 0
80 -82 -81 0
81 112 0
81 -521 0
-81 521 -112 0
82 113 0
82 -501 0
-82 501 -113 0
-83 84 0
-83 118 0
83 -118 -84 0
-84 474 0
-84 475 0
84 -475 -474 0
85 117 0
85 -86 0
-85 86 -117 0
85 0
-86 -102 0
-86 87 0
86 -87 102 0
-87 -103 0
-87 88 0
87 -88 103 0
-88 -108 0
-88 -109 0
88 109 108 0
89 117 0
89 -90 0
-89 90 -117 0
89 0
-90 91 0
-90 94 0
90 -94 -91 0
91 -92 0
91 -93 0
-91 93 92 0
-92 -111 0
-92 110 0
92 -110 111 0
-93 -110 0
-93 111 0
93 -111 110 0
94 -95 0
94 -96 0
-94 96 95 0
-95 -113 0
-95 112 0
95 -112 113 0
-96 -112 0
-96 113 0
96 -113 112 0
97 118 0
97 -98 0
-97 98 -118 0
97 0
-98 99 0
-98 104 0
98 -104 -99 0
99 -100 0
99 -101 0
-99 101 100 0
-100 -103 0
-100 102 0
100 -102 103 0
-101 -102 0
-101 103 0
101 -103 102 0
-104 90 0
-104 105 0
104 -105 -90 0
105 -106 0
105 -107 0
-105 107 106 0
-106 -109 0
-106 108 0
106 -108 109 0
-107 -108 0
-107 109 0
107 -109 108 0
114 -115 0
114 -116 0
-114 116 115 0
114 0
-115 -118 0
-115 117 0
115 -117 118 0
-116 -117 0
-116 118 0
116 -118 117 0
119 521 0
119 501 0
-119 -501 -521 0
119 0
120 452 0
120 448 0
-120 -448 -452 0
120 0
121 456 0
121 -122 0
-121 122 -456 0
121 0
-122 -452 0
-122 -448 0
122 448 452 0
123 460 0
123 -124 0
-123 124 -460 0
123 0
-124 -448 0
-124 125 0
124 -125 448 0
-125 -452 0
-125 -456 0
125 456 452 0
126 464 0
126 -127 0
-126 127 -464 0
126 0
-127 -448 0
-127 128 0
127 -128 448 0
-128 -452 0
-128 129 0
128 -129 452 0
-129 -456 0
-129 -460 0
129 460 456 0
130 467 0
130 -131 0
-130 131 -467 0
130 0
-131 -448 0
-131 132 0
131 -132 448 0
-132 -452 0
-132 133 0
132 -133 452 0
-133 -456 0
-133 134 0
133 -134 456 0
-134 -460 0
-134 -464 0
134 464 460 0
135 470 0
135 -136 0
-135 136 -470 0
135 0
-136 -448 0
-136 137 0
136 -137 448 0
-137 -452 0
-137 138 0
137 -138 452 0
-138 -456 0
-138 139 0
138 -139 456 0
-139 -460 0
-139 140 0
139 -140 460 0
-140 -464 0
-140 -467 0
140 467 464 0
141 474 0
141 -142 0
-141 142 -474 0
141 0
-142 -448 0
-142 143 0
142 -143 448 0
-143 -452 0
-143 144 0
143 -144 452 0
-144 -456 0
-144 145 0
144 -145 456 0
-145 -460 0
-145 146 0
145 -146 460 0
-146 -464 0
-146 147 0
146 -147 464 0
-147 -467 0
-147 -470 0
147 470 467 0
148 478 0
148 -149 0
-148 149 -478 0
148 0
-149 -448 0
-149 150 0
149 -150 448 0
-150 -452 0
-150 151 0
150 -151 452 0
-151 -456 0
-151 152 0
151 -152 456 0
-152 -460 0
-152 153 0
152 -153 460 0
-153 -464 0
-153 154 0
153 -154 464 0
-154 -467 0
-154 155 0
154 -155 467 0
-155 -470 0
-155 -474 0
155 474 470 0
156 482 0
156 -157 0
-156 157 -482 0
156 0
-157 -448 0
-157 158 0
157 -158 448 0
-158 -452 0
-158 159 0
158 -159 452 0
-159 -456 0
-159 160 0
159 -160 456 0
-160 -460 0
-160 161 0
160 -161 460 0
-161 -464 0
-161 162 0
161 -162 464 0
-162 -467 0
-162 163 0
162 -163 467 0
-163 -470 0
-163 164 0
163 -164 470 0
-164 -474 0
-164 -478 0
164 478 474 0
165 486 0
165 -166 0
-165 166 -486 0
165 0
-166 -448 0
-166 167 0
166 -167 448 0
-167 -452 0
-167 168 0
167 -168 452 0
-168 -456 0
-168 169 0
168 -169 456 0
-169 -460 0
-169 170 0
169 -170 460 0
-170 -464 0
-170 171 0
170 -171 464 0
-171 -467 0
-171 172 0
171 -172 467 0
-172 -470 0
-172 173 0
172 -173 470 0
-173 -474 0
-173 174 0
173 -174 474 0
-174 -478 0
-174 -482 0
174 482 478 0
175 489 0
175 -176 0
-175 176 -489 0
175 0
-176 -448 0
-176 177 0
176 -177 448 0
-177 -452 0
-177 178 0
177 -178 452 0
-178 -456 0
-178 179 0
178 -179 456 0
-179 -460 0
-179 180 0
179 -180 460 0
-180 -464 0
-180 181 0
180 -181 464 0
-181 -467 0
-181 182 0
181 -182 467 0
-182 -470 0
-182 183 0
182 -183 470 0
-183 -474 0
-183 184 0
183 -184 474 0
-184 -478 0
-184 185 0
184 -185 478 0
-185 -482 0
-185 -486 0
185 486 482 0
186 493 0
186 -187 0
-186 187 -493 0
186 0
-187 -448 0
-187 188 0
187 -188 448 0
-188 -452 0
-188 189 0
188 -189 452 0
-189 -456 0
-189 190 0
189 -190 456 0
-190 -460 0
-190 191 0
190 -191 460 0
-191 -464 0
-191 192 0
191 -192 464 0
-192 -467 0
-192 193 0
192 -193 467 0
-193 -470 0
-193 194 0
193 -194 470 0
-194 -474 0
-194 195 0
194 -195 474 0
-195 -478 0
-195 196 0
195 -196 478 0
-196 -482 0
-196 197 0
196 -197 482 0
-197 -486 0
-197 -489 0
197 489 486 0
198 497 0
198 -199 0
-198 199 -497 0
198 0
-199 -448 0
-199 200 0
199 -200 448 0
-200 -452 0
-200 201 0
200 -201 452 0
-201 -456 0
-201 202 0
201 -202 456 0
-202 -460 0
-202 203 0
202 -203 460 0
-203 -464 0
-203 204 0
203 -204 464 0
-204 -467 0
-204 205 0
204 -205 467 0
-205 -470 0
-205 206 0
205 -206 470 0
-206 -474 0
-206 207 0
206 -207 474 0
-207 -478 0
-207 208 0
207 -208 478 0
-208 -482 0
-208 209 0
208 -209 482 0
-209 -486 0
-209 210 0
209 -210 486 0
-210 -489 0
-210 -493 0
210 493 489 0
211 502 0
211 -212 0
-211 212 -502 0
211 0
-212 -448 0
-212 213 0
212 -213 448 0
-213 -452 0
-213 214 0
213 -214 452 0
-214 -456 0
-214 215 0
214 -215 456 0
-215 -460 0
-215 216 0
215 -216 460 0
-216 -464 0
-216 217 0
216 -217 464 0
-217 -467 0
-217 218 0
217 -218 467 0
-218 -470 0
-218 219 0
218 -219 470 0
-219 -474 0
-219 220 0
219 -220 474 0
-220 -478 0
-220 221 0
220 -221 478 0
-221 -482 0
-221 222 0
221 -222 482 0
-222 -486 0
-222 223 0
222 -223 486 0
-223 -489 0
-223 224 0
223 -224 489 0
-224 -493 0
-224 -497 0
224 497 493 0
225 506 0
225 -226 0
-225 226 -506 0
225 0
-226 -448 0
-226 227 0
226 -227 448 0
-227 -452 0
-227 228 0
227 -228 452 0
-228 -456 0
-228 229 0
228 -229 456 0
-229 -460 0
-229 230 0
229 -230 460 0
-230 -464 0
-230 231 0
230 -231 464 0
-231 -467 0
-231 232 0
231 -232 467 0
-232 -470 0
-232 233 0
232 -233 470 0
-233 -474 0
-233 234 0
233 -234 474 0
-234 -478 0
-234 235 0
234 -235 478 0
-235 -482 0
-235 236 0
235 -236 482 0
-236 -486 0
-236 237 0
236 -237 486 0
-237 -489 0
-237 238 0
237 -238 489 0
-238 -493 0
-238 239 0
238 -239 493 0
-239 -497 0
-239 -502 0
239 502 497 0
240 510 0
240 -241 0
-240 241 -510 0
240 0
-241 -448 0
-241 242 0
241 -242 448 0
-242 -452 0
-242 243 0
242 -243 452 0
-243 -456 0
-243 244 0
243 -244 456 0
-244 -460 0
-244 245 0
244 -245 460 0
-245 -464 0
-245 246 0
245 -246 464 0
-246 -467 0
-246 247 0
246 -247 467 0
-247 -470 0
-247 248 0
247 -248 470 0
-248 -474 0
-248 249 0
248 -249 474 0
-249 -478 0
-249 250 0
249 -250 478 0
-250 -482 0
-250 251 0
250 -251 482 0
-251 -486 0
-251 252 0
251 -252 486 0
-252 -489 0
-252 253 0
252 -253 489 0
-253 -493 0
-253 254 0
253 -254 493 0
-254 -497 0
-254 255 0
254 -255 497 0
-255 -502 0
-255 -506 0
255 506 502 0
256 514 0
256 -257 0
-256 257 -514 0
256 0
-257 -448 0
-257 258 0
257 -258 448 0
-258 -452 0
-258 259 0
258 -259 452 0
-259 -456 0
-259 260 0
259 -260 456 0
-260 -460 0
-260 261 0
260 -261 460 0
-261 -464 0
-261 262 0
261 -262 464 0
-262 -467 0
-262 263 0
262 -263 467 0
-263 -470 0
-263 264 0
263 -264 470 0
-264 -474 0
-264 265 0
264 -265 474 0
-265 -478 0
-265 266 0
265 -266 478 0
-266 -482 0
-266 267 0
266 -267 482 0
-267 -486 0
-267 268 0
267 -268 486 0
-268 -489 0
-268 269 0
268 -269 489 0
-269 -493 0
-269 270 0
269 -270 493 0
-270 -497 0
-270 271 0
270 -271 497 0
-271 -502 0
-271 272 0
271 -272 502 0
-272 -506 0
-272 -510 0
272 510 506 0
273 518 0
273 -274 0
-273 274 -518 0
273 0
-274 -448 0
-274 275 0
274 -275 448 0
-275 -452 0
-275 276 0
275 -276 452 0
-276 -456 0
-276 277 0
276 -277 456 0
-277 -460 0
-277 278 0
277 -278 460 0
-278 -464 0
-278 279 0
278 -279 464 0
-279 -467 0
-279 280 0
279 -280 467 0
-280 -470 0
-280 281 0
280 -281 470 0
-281 -474 0
-281 282 0
281 -282 474 0
-282 -478 0
-282 283 0
282 -283 478 0
-283 -482 0
-283 284 0
283 -284 482 0
-284 -486 0
-284 285 0
284 -285 486 0
-285 -489 0
-285 286 0
285 -286 489 0
-286 -493 0
-286 287 0
286 -287 493 0
-287 -497 0
-287 288 0
287 -288 497 0
-288 -502 0
-288 289 0
288 -289 502 0
-289 -506 0
-289 290 0
289 -290 506 0
-290 -510 0
-290 -514 0
290 514 510 0
291 522 0
291 -292 0
-291 292 -522 0
291 0
-292 -448 0
-292 293 0
292 -293 448 0
-293 -452 0
-293 294 0
293 -294 452 0
-294 -456 0
-294 295 0
294 -295 456 0
-295 -460 0
-295 296 0
295 -296 460 0
-296 -464 0
-296 297 0
296 -297 464 0
-297 -467 0
-297 298 0
297 -298 467 0
-298 -470 0
-298 299 0
298 -299 470 0
-299 -474 0
-299 300 0
299 -300 474 0
-300 -478 0
-300 301 0
300 -301 478 0
-301 -482 0
-301 302 0
301 -302 482 0
-302 -486 0
-302 303 0
302 -303 486 0
-303 -489 0
-303 304 0
303 -304 489 0
-304 -493 0
-304 305 0
304 -305 493 0
-305 -497 0
-305 306 0
305 -306 497 0
-306 -502 0
-306 307 0
306 -307 502 0
-307 -506 0
-307 308 0
307 -308 506 0
-308 -510 0
-308 309 0
308 -309 510 0
-309 -514 0
-309 -518 0
309 518 514 0
310 453 0
310 449 0
-310 -449 -453 0
310 0
311 457 0
311 -312 0
-311 312 -457 0
311 0
-312 -453 0
-312 -449 0
312 449 453 0
313 461 0
313 -314 0
-313 314 -461 0
313 0
-314 -449 0
-314 315 0
314 -315 449 0
-315 -453 0
-315 -457 0
315 457 453 0
316 471 0
316 -317 0
-316 317 -471 0
316 0
-317 -449 0
-317 318 0
317 -318 449 0
-318 -453 0
-318 319 0
318 -319 453 0
-319 -457 0
-319 -461 0
319 461 457 0
320 475 0
320 -321 0
-320 321 -475 0
320 0
-321 -449 0
-321 322 0
321 -322 449 0
-322 -453 0
-322 323 0
322 -323 453 0
-323 -457 0
-323 324 0
323 -324 457 0
-324 -461 0
-324 -471 0
324 471 461 0
325 479 0
325 -326 0
-325 326 -479 0
325 0
-326 -449 0
-326 327 0
326 -327 449 0
-327 -453 0
-327 328 0
327 -328 453 0
-328 -457 0
-328 329 0
328 -329 457 0
-329 -461 0
-329 330 0
329 -330 461 0
-330 -471 0
-330 -475 0
330 475 471 0
331 483 0
331 -332 0
-331 332 -483 0
331 0
-332 -449 0
-332 333 0
332 -333 449 0
-333 -453 0
-333 334 0
333 -334 453 0
-334 -457 0
-334 335 0
334 -335 457 0
-335 -461 0
-335 336 0
335 -336 461 0
-336 -471 0
-336 337 0
336 -337 471 0
-337 -475 0
-337 -479 0
337 479 475 0
338 490 0
338 -339 0
-338 339 -490 0
338 0
-339 -449 0
-339 340 0
339 -340 449 0
-340 -453 0
-340 341 0
340 -341 453 0
-341 -457 0
-341 342 0
341 -342 457 0
-342 -461 0
-342 343 0
342 -343 461 0
-343 -471 0
-343 344 0
343 -344 471 0
-344 -475 0
-344 345 0
344 -345 475 0
-345 -479 0
-345 -483 0
345 483 479 0
346 494 0
346 -347 0
-346 347 -494 0
346 0
-347 -449 0
-347 348 0
347 -348 449 0
-348 -453 0
-348 349 0
348 -349 453 0
-349 -457 0
-349 350 0
349 -350 457 0
-350 -461 0
-350 351 0
350 -351 461 0
-351 -471 0
-351 352 0
351 -352 471 0
-352 -475 0
-352 353 0
352 -353 475 0
-353 -479 0
-353 354 0
353 -354 479 0
-354 -483 0
-354 -490 0
354 490 483 0
355 498 0
355 -356 0
-355 356 -498 0
355 0
-356 -449 0
-356 357 0
356 -357 449 0
-357 -453 0
-357 358 0
357 -358 453 0
-358 -457 0
-358 359 0
358 -359 457 0
-359 -461 0
-359 360 0
359 -360 461 0
-360 -471 0
-360 361 0
360 -361 471 0
-361 -475 0
-361 362 0
361 -362 475 0
-362 -479 0
-362 363 0
362 -363 479 0
-363 -483 0
-363 364 0
363 -364 483 0
-364 -490 0
-364 -494 0
364 494 490 0
365 503 0
365 -366 0
-365 366 -503 0
365 0
-366 -449 0
-366 367 0
366 -367 449 0
-367 -453 0
-367 368 0
367 -368 453 0
-368 -457 0
-368 369 0
368 -369 457 0
-369 -461 0
-369 370 0
369 -370 461 0
-370 -471 0
-370 371 0
370 -371 471 0
-371 -475 0
-371 372 0
371 -372 475 0
-372 -479 0
-372 373 0
372 -373 479 0
-373 -483 0
-373 374 0
373 -374 483 0
-374 -490 0
-374 375 0
374 -375 490 0
-375 -494 0
-375 -498 0
375 498 494 0
376 507 0
376 -377 0
-376 377 -507 0
376 0
-377 -449 0
-377 378 0
377 -378 449 0
-378 -453 0
-378 379 0
378 -379 453 0
-379 -457 0
-379 380 0
379 -380 457 0
-380 -461 0
-380 381 0
380 -381 461 0
-381 -471 0
-381 382 0
381 -382 471 0
-382 -475 0
-382 383 0
382 -383 475 0
-383 -479 0
-383 384 0
383 -384 479 0
-384 -483 0
-384 385 0
384 -385 483 0
-385 -490 0
-385 386 0
385 -386 490 0
-386 -494 0
-386 387 0
386 -387 494 0
-387 -498 0
-387 -503 0
387 503 498 0
388 511 0
388 -389 0
-388 389 -511 0
388 0
-389 -449 0
-389 390 0
389 -390 449 0
-390 -453 0
-390 391 0
390 -391 453 0
-391 -457 0
-391 392 0
391 -392 457 0
-392 -461 0
-392 393 0
392 -393 461 0
-393 -471 0
-393 394 0
393 -394 471 0
-394 -475 0
-394 395 0
394 -395 475 0
-395 -479 0
-395 396 0
395 -396 479 0
-396 -483 0
-396 397 0
396 -397 483 0
-397 -490 0
-397 398 0
397 -398 490 0
-398 -494 0
-398 399 0
398 -399 494 0
-399 -498 0
-399 400 0
399 -400 498 0
-400 -503 0
-400 -507 0
400 507 503 0
401 515 0
401 -402 0
-401 402 -515 0
401 0
-402 -449 0
-402 403 0
402 -403 449 0
-403 -453 0
-403 404 0
403 -404 453 0
-404 -457 0
-404 405 0
404 -405 457 0
-405 -461 0
-405 406 0
405 -406 461 0
-406 -471 0
-406 407 0
406 -407 471 0
-407 -475 0
-407 408 0
407 -408 475 0
-408 -479 0
-408 409 0
408 -409 479 0
-409 -483 0
-409 410 0
409 -410 483 0
-410 -490 0
-410 411 0
410 -411 490 0
-411 -494 0
-411 412 0
411 -412 494 0
-412 -498 0
-412 413 0
412 -413 498 0
-413 -503 0
-413 414 0
413 -414 503 0
-414 -507 0
-414 -511 0
414 511 507 0
415 519 0
415 -416 0
-415 416 -519 0
415 0
-416 -449 0
-416 417 0
416 -417 449 0
-417 -453 0
-417 418 0
417 -418 453 0
-418 -457 0
-418 419 0
418 -419 457 0
-419 -461 0
-419 420 0
419 -420 461 0
-420 -471 0
-420 421 0
420 -421 471 0
-421 -475 0
-421 422 0
421 -422 475 0
-422 -479 0
-422 423 0
422 -423 479 0
-423 -483 0
-423 424 0
423 -424 483 0
-424 -490 0
-424 425 0
424 -425 490 0
-425 -494 0
-425 426 0
425 -426 494 0
-426 -498 0
-426 427 0
426 -427 498 0
-427 -503 0
-427 428 0
427 -428 503 0
-428 -507 0
-428 429 0
428 -429 507 0
-429 -511 0
-429 -515 0
429 515 511 0
430 523 0
430 -431 0
-430 431 -523 0
430 0
-431 -449 0
-431 432 0
431 -432 449 0
-432 -453 0
-432 433 0
432 -433 453 0
-433 -457 0
-433 434 0
433 -434 457 0
-434 -461 0
-434 435 0
434 -435 461 0
-435 -471 0
-435 436 0
435 -436 471 0
-436 -475 0
-436 437 0
436 -437 475 0
-437 -479 0
-437 438 0
437 -438 479 0
-438 -483 0
-438 439 0
438 -439 483 0
-439 -490 0
-439 440 0
439 -440 490 0
-440 -494 0
-440 441 0
440 -441 494 0
-441 -498 0
-441 442 0
441 -442 498 0
-442 -503 0
-442 443 0
442 -443 503 0
-443 -507 0
-443 444 0
443 -444 507 0
-444 -511 0
-444 445 0
444 -445 511 0
-445 -515 0
-445 -519 0
445 519 515 0
446 -447 0
446 -450 0
-446 450 447 0
446 0
-447 71 0
-447 521 0
447 -521 -71 0
450 -451 0
450 -454 0
-450 454 451 0
-451 73 0
-451 521 0
451 -521 -73 0
454 -455 0
454 -458 0
-454 458 455 0
-455 33 0
-455 521 0
455 -521 -33 0
458 -459 0
458 -462 0
-458 462 459 0
-459 60 0
-459 521 0
459 -521 -60 0
462 -463 0
462 -465 0
-462 465 463 0
-463 35 0
-463 521 0
463 -521 -35 0
465 -466 0
465 -468 0
-465 468 466 0
-466 37 0
-466 521 0
466 -521 -37 0
468 -469 0
468 -472 0
-468 472 469 0
-469 39 0
-469 521 0
469 -521 -39 0
472 -473 0
472 -476 0
-472 476 473 0
-473 84 0
-473 521 0
473 -521 -84 0
476 -477 0
476 -480 0
-476 480 477 0
-477 41 0
-477 521 0
477 -521 -41 0
480 -481 0
480 -484 0
-480 484 481 0
-481 75 0
-481 501 0
481 -501 -75 0
484 -485 0
484 -487 0
-484 487 485 0
-485 62 0
-485 521 0
485 -521 -62 0
487 -488 0
487 -491 0
-487 491 488 0
-488 63 0
-488 521 0
488 -521 -63 0
491 -492 0
491 -495 0
-491 495 492 0
-492 43 0
-492 521 0
492 -521 -43 0
495 -496 0
495 -499 0
-495 499 496 0
-496 45 0
-496 521 0
496 -521 -45 0
499 -500 0
499 -504 0
-499 504 500 0
-500 77 0
-500 501 0
500 -501 -77 0
504 -505 0
504 -508 0
-504 508 505 0
-505 47 0
-505 521 0
505 -521 -47 0
508 -509 0
508 -512 0
-508 512 509 0
-509 49 0
-509 521 0
509 -521 -49 0
512 -513 0
512 -516 0
-512 516 513 0
-513 51 0
-513 521 0
513 -521 -51 0
516 -517 0
516 -520 0
-516 520 517 0
-517 52 0
-517 521 0
517 -521 -52 0
-520 78 0
-520 521 0
520 -521 -78 0
